(set-info :Origin "This instance was generated by: BanditFuzz-- an RL fuzzer for SMT solvers" )
(set-info :Author "Joe Scott, Fed Mora, Vijay Ganesh" )
(set-info :Contact "Joe Scott, joseph.scott@uwaterloo.ca")
(set-logic QF_BV)
(declare-const bool_0 Bool)
(declare-const bool_1 Bool)
(declare-const bool_2 Bool)
(declare-const bool_3 Bool)
(declare-const bool_4 Bool)
(declare-const bv_0 (_ BitVec 32))
(declare-const bv_1 (_ BitVec 32))
(declare-const bv_2 (_ BitVec 32))
(declare-const bv_3 (_ BitVec 32))
(declare-const bv_4 (_ BitVec 32))
(assert (bvsgt (bvashr (bvurem bv_4 #x3c80460c ) (bvsub bv_0 #x071ae02e )) (bvand (bvxnor bv_0 #xc4db4ed9 ) (bvnand #xeabdc4ac  #xd88ac1bc ))))
(assert (and (not (bvuge bv_0 #x488f3c15 )) (or (bvsge bv_3 bv_1) (bvsgt bv_1 #xa0e8c202 ))))
(assert (bvuge (bvnand (bvsmod bv_0 bv_2) (bvlshr #x024ea187  bv_4)) (bvmul (bvurem #x6cfd7843  bv_1) (bvsmod #xbe30c47f  #x4b3cab51 ))))
(assert (bvuge (bvnand (bvnor #xafecba1f  bv_0) (bvlshr bv_0 bv_2)) (bvmul (bvshl bv_4 #xfe99b413 ) (bvxor #xaf62ff49  #x08d94250 ))))
(assert (xor (bvsle (bvmul bv_0 #x123031de ) (bvxor bv_2 bv_1)) (bvugt (bvudiv #x250c743d  bv_4) (bvudiv bv_4 bv_2))))
(check-sat)
(exit)
